119 48 011 1
1
829 113 1
679 114 1
601 115 1
602 116 1
642 117 1
711 118 1
651 119 1
723 108 1
636 109 1
681 110 1
796 111 1
824 112 1
635 113 1
805 114 1
667 115 1
634 116 1
796 117 1
577 118 1
574 119 1
616 108 1
678 109 1
756 110 1
570 111 1
606 112 1
757 113 1
603 114 1
588 115 1
645 116 1
775 117 1
835 118 1
753 119 1
845 108 1
677 109 1
685 110 1
605 111 1
654 112 1
578 113 1
619 114 1
680 115 1
586 116 1
605 117 1
681 118 1
727 119 1
695 108 1
991 109 1
755 110 1
713 111 1
639 112 1
1
1
1
1
1
1
1
1
1
1
1
1
1
1
1
1
1
1
1
1
1
1
1
1
1
1
1
1
1
1
1
1
1
1
1
1
1
1
1
1
1
1
1
1
1
1
1
1
1
1
1
1
1
1
1
1
1
1
1 9 722 21 615 33 844 45 694
1 10 635 22 677 34 676 46 990
1 11 680 23 755 35 684 47 754
1 12 795 24 569 36 604 48 712
1 13 823 25 605 37 653 49 638
1 2 828 14 634 26 756 38 577
1 3 678 15 804 27 602 39 618
1 4 600 16 666 28 587 40 679
1 5 601 17 633 29 644 41 585
1 6 641 18 795 30 774 42 604
1 7 710 19 576 31 834 43 680
1 8 650 20 573 32 752 44 726
